[[38, 10, 58, 72, 31, 39, 9, 25, 55, 18, 50, 32, 44, 3, 24, 49, 16, 63, 23, 56, 41, 43], [42, 64, 22, 73, 33, 62, 2, 74, 28, 61, 21, 47, 69, 36, 71, 60, 70, 20, 37, 15, 57, 13, 27, 29, 5], [48, 30, 45, 4, 75, 68, 6, 51, 17, 40, 12, 26, 76, 67, 7, 35, 34, 46, 52, 8, 54, 19, 14, 59, 53, 11, 66, 65]]